NAME : pairopt
TYPE : ACVRP
DIMENSION : 7
EDGE_WEIGHT_TYPE : EXPLICIT
EDGE_WEIGHT_FORMAT : FULL_MATRIX
CAPACITY : 15000
VEHICLES : 2
EDGE_WEIGHT_SECTION
100000 -100000 -100000 100000 100000 100000 100000 
100000 100000 1000000 943 693 51284 1296 
100000 1000000 100000 674 442 50971 51050 
0 943 674 100000 250 102915 103201 
0 693 442 250 100000 102692 1564 
0 51284 50971 102915 102692 100000 250 
0 1296 51050 103201 1564 250 100000 
DEMAND_SECTION
1 0
2 0
3 0
4 5000
5 5000
6 5000
7 5000
DEPOT_SECTION
1
EOF